c description: Perfect Matching Principle on 
c generator: CNFgen (0.9.0)
c copyright: (C) 2012-2020 Massimo Lauria <massimo.lauria@uniroma1.it>
c url: https://massimolauria.net/cnfgen
c
p cnf 40 144
0
1 0
-2 -3 0
-2 -4 0
-2 -5 0
-3 -4 0
-3 -5 0
-4 -5 0
2 3 4 5 0
-1 -6 0
-1 -7 0
-1 -8 0
-6 -7 0
-6 -8 0
-7 -8 0
1 6 7 8 0
-9 -10 0
9 10 0
11 0
0
12 0
-13 -14 0
-13 -15 0
-13 -16 0
-14 -15 0
-14 -16 0
-15 -16 0
13 14 15 16 0
-11 -17 0
-11 -18 0
-17 -18 0
11 17 18 0
13 0
-6 -14 0
-6 -19 0
-14 -19 0
6 14 19 0
-9 -17 0
-9 -20 0
-17 -20 0
9 17 20 0
0
-2 -7 0
-2 -10 0
-2 -21 0
-2 -22 0
-2 -23 0
-2 -24 0
-2 -25 0
-2 -26 0
-7 -10 0
-7 -21 0
-7 -22 0
-7 -23 0
-7 -24 0
-7 -25 0
-7 -26 0
-10 -21 0
-10 -22 0
-10 -23 0
-10 -24 0
-10 -25 0
-10 -26 0
-21 -22 0
-21 -23 0
-21 -24 0
-21 -25 0
-21 -26 0
-22 -23 0
-22 -24 0
-22 -25 0
-22 -26 0
-23 -24 0
-23 -25 0
-23 -26 0
-24 -25 0
-24 -26 0
-25 -26 0
2 7 10 21 22 23 24 25 26 0
27 0
-27 -28 0
27 28 0
21 0
-22 -29 0
22 29 0
0
30 0
-28 -31 0
-28 -32 0
-28 -33 0
-28 -34 0
-31 -32 0
-31 -33 0
-31 -34 0
-32 -33 0
-32 -34 0
-33 -34 0
28 31 32 33 34 0
35 0
36 0
-12 -31 0
-12 -37 0
-31 -37 0
12 31 37 0
38 0
-3 -23 0
3 23 0
24 0
0
-15 -30 0
-15 -32 0
-15 -36 0
-30 -32 0
-30 -36 0
-32 -36 0
15 30 32 36 0
39 0
-4 -18 0
-4 -25 0
-4 -35 0
-4 -40 0
-18 -25 0
-18 -35 0
-18 -40 0
-25 -35 0
-25 -40 0
-35 -40 0
4 18 25 35 40 0
26 0
29 0
40 0
-20 -33 0
20 33 0
-5 -19 0
-5 -37 0
-5 -38 0
-19 -37 0
-19 -38 0
-37 -38 0
5 19 37 38 0
-34 -39 0
34 39 0
8 0
16 0